<instance format="XCSP3" type="CSP">
  <variables>
    <array id="x" note="x is the first Latin square" size="[20][20]"> 0..19 </array>
    <array id="y" note="y is the second Latin square" size="[20][20]"> 0..19 </array>
    <array id="z" note="z is the matrix used to control orthogonality" size="[400]"> 0..399 </array>
  </variables>
  <constraints>
    <group note="ensuring that x is a Latin square">
      <allDifferent> %... </allDifferent>
      <args> x[0][] </args>
      <args> x[1][] </args>
      <args> x[2][] </args>
      <args> x[3][] </args>
      <args> x[4][] </args>
      <args> x[5][] </args>
      <args> x[6][] </args>
      <args> x[7][] </args>
      <args> x[8][] </args>
      <args> x[9][] </args>
      <args> x[10][] </args>
      <args> x[11][] </args>
      <args> x[12][] </args>
      <args> x[13][] </args>
      <args> x[14][] </args>
      <args> x[15][] </args>
      <args> x[16][] </args>
      <args> x[17][] </args>
      <args> x[18][] </args>
      <args> x[19][] </args>
      <args> x[][0] </args>
      <args> x[][1] </args>
      <args> x[][2] </args>
      <args> x[][3] </args>
      <args> x[][4] </args>
      <args> x[][5] </args>
      <args> x[][6] </args>
      <args> x[][7] </args>
      <args> x[][8] </args>
      <args> x[][9] </args>
      <args> x[][10] </args>
      <args> x[][11] </args>
      <args> x[][12] </args>
      <args> x[][13] </args>
      <args> x[][14] </args>
      <args> x[][15] </args>
      <args> x[][16] </args>
      <args> x[][17] </args>
      <args> x[][18] </args>
      <args> x[][19] </args>
    </group>
    <group note="ensuring that y is a Latin square">
      <allDifferent> %... </allDifferent>
      <args> y[0][] </args>
      <args> y[1][] </args>
      <args> y[2][] </args>
      <args> y[3][] </args>
      <args> y[4][] </args>
      <args> y[5][] </args>
      <args> y[6][] </args>
      <args> y[7][] </args>
      <args> y[8][] </args>
      <args> y[9][] </args>
      <args> y[10][] </args>
      <args> y[11][] </args>
      <args> y[12][] </args>
      <args> y[13][] </args>
      <args> y[14][] </args>
      <args> y[15][] </args>
      <args> y[16][] </args>
      <args> y[17][] </args>
      <args> y[18][] </args>
      <args> y[19][] </args>
      <args> y[][0] </args>
      <args> y[][1] </args>
      <args> y[][2] </args>
      <args> y[][3] </args>
      <args> y[][4] </args>
      <args> y[][5] </args>
      <args> y[][6] </args>
      <args> y[][7] </args>
      <args> y[][8] </args>
      <args> y[][9] </args>
      <args> y[][10] </args>
      <args> y[][11] </args>
      <args> y[][12] </args>
      <args> y[][13] </args>
      <args> y[][14] </args>
      <args> y[][15] </args>
      <args> y[][16] </args>
      <args> y[][17] </args>
      <args> y[][18] </args>
      <args> y[][19] </args>
    </group>
    <group class="diagonals" note="ensuring that values on diagonals are different">
      <allDifferent> %... </allDifferent>
      <args> x[0][0] x[1][1] x[2][2] x[3][3] x[4][4] x[5][5] x[6][6] x[7][7] x[8][8] x[9][9] x[10][10] x[11][11] x[12][12] x[13][13] x[14][14] x[15][15] x[16][16] x[17][17] x[18][18] x[19][19] </args>
      <args> x[0][19] x[1][18] x[2][17] x[3][16] x[4][15] x[5][14] x[6][13] x[7][12] x[8][11] x[9][10] x[10][9] x[11][8] x[12][7] x[13][6] x[14][5] x[15][4] x[16][3] x[17][2] x[18][1] x[19][0] </args>
      <args> y[0][0] y[1][1] y[2][2] y[3][3] y[4][4] y[5][5] y[6][6] y[7][7] y[8][8] y[9][9] y[10][10] y[11][11] y[12][12] y[13][13] y[14][14] y[15][15] y[16][16] y[17][17] y[18][18] y[19][19] </args>
      <args> y[0][19] y[1][18] y[2][17] y[3][16] y[4][15] y[5][14] y[6][13] y[7][12] y[8][11] y[9][10] y[10][9] y[11][8] y[12][7] y[13][6] y[14][5] y[15][4] y[16][3] y[17][2] y[18][1] y[19][0] </args>
    </group>
    <allDifferent note="ensuring orthogonality of x and y through z"> z[] </allDifferent>
    <group note="computing z from x and y">
      <extension>
        <list> %0 %1 %2 </list>
        <supports> (0,0,0)(0,1,1)(0,2,2)(0,3,3)(0,4,4)(0,5,5)(0,6,6)(0,7,7)(0,8,8)(0,9,9)(0,10,10)(0,11,11)(0,12,12)(0,13,13)(0,14,14)(0,15,15)(0,16,16)(0,17,17)(0,18,18)(0,19,19)(1,0,20)(1,1,21)(1,2,22)(1,3,23)(1,4,24)(1,5,25)(1,6,26)(1,7,27)(1,8,28)(1,9,29)(1,10,30)(1,11,31)(1,12,32)(1,13,33)(1,14,34)(1,15,35)(1,16,36)(1,17,37)(1,18,38)(1,19,39)(2,0,40)(2,1,41)(2,2,42)(2,3,43)(2,4,44)(2,5,45)(2,6,46)(2,7,47)(2,8,48)(2,9,49)(2,10,50)(2,11,51)(2,12,52)(2,13,53)(2,14,54)(2,15,55)(2,16,56)(2,17,57)(2,18,58)(2,19,59)(3,0,60)(3,1,61)(3,2,62)(3,3,63)(3,4,64)(3,5,65)(3,6,66)(3,7,67)(3,8,68)(3,9,69)(3,10,70)(3,11,71)(3,12,72)(3,13,73)(3,14,74)(3,15,75)(3,16,76)(3,17,77)(3,18,78)(3,19,79)(4,0,80)(4,1,81)(4,2,82)(4,3,83)(4,4,84)(4,5,85)(4,6,86)(4,7,87)(4,8,88)(4,9,89)(4,10,90)(4,11,91)(4,12,92)(4,13,93)(4,14,94)(4,15,95)(4,16,96)(4,17,97)(4,18,98)(4,19,99)(5,0,100)(5,1,101)(5,2,102)(5,3,103)(5,4,104)(5,5,105)(5,6,106)(5,7,107)(5,8,108)(5,9,109)(5,10,110)(5,11,111)(5,12,112)(5,13,113)(5,14,114)(5,15,115)(5,16,116)(5,17,117)(5,18,118)(5,19,119)(6,0,120)(6,1,121)(6,2,122)(6,3,123)(6,4,124)(6,5,125)(6,6,126)(6,7,127)(6,8,128)(6,9,129)(6,10,130)(6,11,131)(6,12,132)(6,13,133)(6,14,134)(6,15,135)(6,16,136)(6,17,137)(6,18,138)(6,19,139)(7,0,140)(7,1,141)(7,2,142)(7,3,143)(7,4,144)(7,5,145)(7,6,146)(7,7,147)(7,8,148)(7,9,149)(7,10,150)(7,11,151)(7,12,152)(7,13,153)(7,14,154)(7,15,155)(7,16,156)(7,17,157)(7,18,158)(7,19,159)(8,0,160)(8,1,161)(8,2,162)(8,3,163)(8,4,164)(8,5,165)(8,6,166)(8,7,167)(8,8,168)(8,9,169)(8,10,170)(8,11,171)(8,12,172)(8,13,173)(8,14,174)(8,15,175)(8,16,176)(8,17,177)(8,18,178)(8,19,179)(9,0,180)(9,1,181)(9,2,182)(9,3,183)(9,4,184)(9,5,185)(9,6,186)(9,7,187)(9,8,188)(9,9,189)(9,10,190)(9,11,191)(9,12,192)(9,13,193)(9,14,194)(9,15,195)(9,16,196)(9,17,197)(9,18,198)(9,19,199)(10,0,200)(10,1,201)(10,2,202)(10,3,203)(10,4,204)(10,5,205)(10,6,206)(10,7,207)(10,8,208)(10,9,209)(10,10,210)(10,11,211)(10,12,212)(10,13,213)(10,14,214)(10,15,215)(10,16,216)(10,17,217)(10,18,218)(10,19,219)(11,0,220)(11,1,221)(11,2,222)(11,3,223)(11,4,224)(11,5,225)(11,6,226)(11,7,227)(11,8,228)(11,9,229)(11,10,230)(11,11,231)(11,12,232)(11,13,233)(11,14,234)(11,15,235)(11,16,236)(11,17,237)(11,18,238)(11,19,239)(12,0,240)(12,1,241)(12,2,242)(12,3,243)(12,4,244)(12,5,245)(12,6,246)(12,7,247)(12,8,248)(12,9,249)(12,10,250)(12,11,251)(12,12,252)(12,13,253)(12,14,254)(12,15,255)(12,16,256)(12,17,257)(12,18,258)(12,19,259)(13,0,260)(13,1,261)(13,2,262)(13,3,263)(13,4,264)(13,5,265)(13,6,266)(13,7,267)(13,8,268)(13,9,269)(13,10,270)(13,11,271)(13,12,272)(13,13,273)(13,14,274)(13,15,275)(13,16,276)(13,17,277)(13,18,278)(13,19,279)(14,0,280)(14,1,281)(14,2,282)(14,3,283)(14,4,284)(14,5,285)(14,6,286)(14,7,287)(14,8,288)(14,9,289)(14,10,290)(14,11,291)(14,12,292)(14,13,293)(14,14,294)(14,15,295)(14,16,296)(14,17,297)(14,18,298)(14,19,299)(15,0,300)(15,1,301)(15,2,302)(15,3,303)(15,4,304)(15,5,305)(15,6,306)(15,7,307)(15,8,308)(15,9,309)(15,10,310)(15,11,311)(15,12,312)(15,13,313)(15,14,314)(15,15,315)(15,16,316)(15,17,317)(15,18,318)(15,19,319)(16,0,320)(16,1,321)(16,2,322)(16,3,323)(16,4,324)(16,5,325)(16,6,326)(16,7,327)(16,8,328)(16,9,329)(16,10,330)(16,11,331)(16,12,332)(16,13,333)(16,14,334)(16,15,335)(16,16,336)(16,17,337)(16,18,338)(16,19,339)(17,0,340)(17,1,341)(17,2,342)(17,3,343)(17,4,344)(17,5,345)(17,6,346)(17,7,347)(17,8,348)(17,9,349)(17,10,350)(17,11,351)(17,12,352)(17,13,353)(17,14,354)(17,15,355)(17,16,356)(17,17,357)(17,18,358)(17,19,359)(18,0,360)(18,1,361)(18,2,362)(18,3,363)(18,4,364)(18,5,365)(18,6,366)(18,7,367)(18,8,368)(18,9,369)(18,10,370)(18,11,371)(18,12,372)(18,13,373)(18,14,374)(18,15,375)(18,16,376)(18,17,377)(18,18,378)(18,19,379)(19,0,380)(19,1,381)(19,2,382)(19,3,383)(19,4,384)(19,5,385)(19,6,386)(19,7,387)(19,8,388)(19,9,389)(19,10,390)(19,11,391)(19,12,392)(19,13,393)(19,14,394)(19,15,395)(19,16,396)(19,17,397)(19,18,398)(19,19,399) </supports>
      </extension>
      <args> x[0][0] y[0][0] z[0] </args>
      <args> x[0][1] y[0][1] z[1] </args>
      <args> x[0][2] y[0][2] z[2] </args>
      <args> x[0][3] y[0][3] z[3] </args>
      <args> x[0][4] y[0][4] z[4] </args>
      <args> x[0][5] y[0][5] z[5] </args>
      <args> x[0][6] y[0][6] z[6] </args>
      <args> x[0][7] y[0][7] z[7] </args>
      <args> x[0][8] y[0][8] z[8] </args>
      <args> x[0][9] y[0][9] z[9] </args>
      <args> x[0][10] y[0][10] z[10] </args>
      <args> x[0][11] y[0][11] z[11] </args>
      <args> x[0][12] y[0][12] z[12] </args>
      <args> x[0][13] y[0][13] z[13] </args>
      <args> x[0][14] y[0][14] z[14] </args>
      <args> x[0][15] y[0][15] z[15] </args>
      <args> x[0][16] y[0][16] z[16] </args>
      <args> x[0][17] y[0][17] z[17] </args>
      <args> x[0][18] y[0][18] z[18] </args>
      <args> x[0][19] y[0][19] z[19] </args>
      <args> x[1][0] y[1][0] z[20] </args>
      <args> x[1][1] y[1][1] z[21] </args>
      <args> x[1][2] y[1][2] z[22] </args>
      <args> x[1][3] y[1][3] z[23] </args>
      <args> x[1][4] y[1][4] z[24] </args>
      <args> x[1][5] y[1][5] z[25] </args>
      <args> x[1][6] y[1][6] z[26] </args>
      <args> x[1][7] y[1][7] z[27] </args>
      <args> x[1][8] y[1][8] z[28] </args>
      <args> x[1][9] y[1][9] z[29] </args>
      <args> x[1][10] y[1][10] z[30] </args>
      <args> x[1][11] y[1][11] z[31] </args>
      <args> x[1][12] y[1][12] z[32] </args>
      <args> x[1][13] y[1][13] z[33] </args>
      <args> x[1][14] y[1][14] z[34] </args>
      <args> x[1][15] y[1][15] z[35] </args>
      <args> x[1][16] y[1][16] z[36] </args>
      <args> x[1][17] y[1][17] z[37] </args>
      <args> x[1][18] y[1][18] z[38] </args>
      <args> x[1][19] y[1][19] z[39] </args>
      <args> x[2][0] y[2][0] z[40] </args>
      <args> x[2][1] y[2][1] z[41] </args>
      <args> x[2][2] y[2][2] z[42] </args>
      <args> x[2][3] y[2][3] z[43] </args>
      <args> x[2][4] y[2][4] z[44] </args>
      <args> x[2][5] y[2][5] z[45] </args>
      <args> x[2][6] y[2][6] z[46] </args>
      <args> x[2][7] y[2][7] z[47] </args>
      <args> x[2][8] y[2][8] z[48] </args>
      <args> x[2][9] y[2][9] z[49] </args>
      <args> x[2][10] y[2][10] z[50] </args>
      <args> x[2][11] y[2][11] z[51] </args>
      <args> x[2][12] y[2][12] z[52] </args>
      <args> x[2][13] y[2][13] z[53] </args>
      <args> x[2][14] y[2][14] z[54] </args>
      <args> x[2][15] y[2][15] z[55] </args>
      <args> x[2][16] y[2][16] z[56] </args>
      <args> x[2][17] y[2][17] z[57] </args>
      <args> x[2][18] y[2][18] z[58] </args>
      <args> x[2][19] y[2][19] z[59] </args>
      <args> x[3][0] y[3][0] z[60] </args>
      <args> x[3][1] y[3][1] z[61] </args>
      <args> x[3][2] y[3][2] z[62] </args>
      <args> x[3][3] y[3][3] z[63] </args>
      <args> x[3][4] y[3][4] z[64] </args>
      <args> x[3][5] y[3][5] z[65] </args>
      <args> x[3][6] y[3][6] z[66] </args>
      <args> x[3][7] y[3][7] z[67] </args>
      <args> x[3][8] y[3][8] z[68] </args>
      <args> x[3][9] y[3][9] z[69] </args>
      <args> x[3][10] y[3][10] z[70] </args>
      <args> x[3][11] y[3][11] z[71] </args>
      <args> x[3][12] y[3][12] z[72] </args>
      <args> x[3][13] y[3][13] z[73] </args>
      <args> x[3][14] y[3][14] z[74] </args>
      <args> x[3][15] y[3][15] z[75] </args>
      <args> x[3][16] y[3][16] z[76] </args>
      <args> x[3][17] y[3][17] z[77] </args>
      <args> x[3][18] y[3][18] z[78] </args>
      <args> x[3][19] y[3][19] z[79] </args>
      <args> x[4][0] y[4][0] z[80] </args>
      <args> x[4][1] y[4][1] z[81] </args>
      <args> x[4][2] y[4][2] z[82] </args>
      <args> x[4][3] y[4][3] z[83] </args>
      <args> x[4][4] y[4][4] z[84] </args>
      <args> x[4][5] y[4][5] z[85] </args>
      <args> x[4][6] y[4][6] z[86] </args>
      <args> x[4][7] y[4][7] z[87] </args>
      <args> x[4][8] y[4][8] z[88] </args>
      <args> x[4][9] y[4][9] z[89] </args>
      <args> x[4][10] y[4][10] z[90] </args>
      <args> x[4][11] y[4][11] z[91] </args>
      <args> x[4][12] y[4][12] z[92] </args>
      <args> x[4][13] y[4][13] z[93] </args>
      <args> x[4][14] y[4][14] z[94] </args>
      <args> x[4][15] y[4][15] z[95] </args>
      <args> x[4][16] y[4][16] z[96] </args>
      <args> x[4][17] y[4][17] z[97] </args>
      <args> x[4][18] y[4][18] z[98] </args>
      <args> x[4][19] y[4][19] z[99] </args>
      <args> x[5][0] y[5][0] z[100] </args>
      <args> x[5][1] y[5][1] z[101] </args>
      <args> x[5][2] y[5][2] z[102] </args>
      <args> x[5][3] y[5][3] z[103] </args>
      <args> x[5][4] y[5][4] z[104] </args>
      <args> x[5][5] y[5][5] z[105] </args>
      <args> x[5][6] y[5][6] z[106] </args>
      <args> x[5][7] y[5][7] z[107] </args>
      <args> x[5][8] y[5][8] z[108] </args>
      <args> x[5][9] y[5][9] z[109] </args>
      <args> x[5][10] y[5][10] z[110] </args>
      <args> x[5][11] y[5][11] z[111] </args>
      <args> x[5][12] y[5][12] z[112] </args>
      <args> x[5][13] y[5][13] z[113] </args>
      <args> x[5][14] y[5][14] z[114] </args>
      <args> x[5][15] y[5][15] z[115] </args>
      <args> x[5][16] y[5][16] z[116] </args>
      <args> x[5][17] y[5][17] z[117] </args>
      <args> x[5][18] y[5][18] z[118] </args>
      <args> x[5][19] y[5][19] z[119] </args>
      <args> x[6][0] y[6][0] z[120] </args>
      <args> x[6][1] y[6][1] z[121] </args>
      <args> x[6][2] y[6][2] z[122] </args>
      <args> x[6][3] y[6][3] z[123] </args>
      <args> x[6][4] y[6][4] z[124] </args>
      <args> x[6][5] y[6][5] z[125] </args>
      <args> x[6][6] y[6][6] z[126] </args>
      <args> x[6][7] y[6][7] z[127] </args>
      <args> x[6][8] y[6][8] z[128] </args>
      <args> x[6][9] y[6][9] z[129] </args>
      <args> x[6][10] y[6][10] z[130] </args>
      <args> x[6][11] y[6][11] z[131] </args>
      <args> x[6][12] y[6][12] z[132] </args>
      <args> x[6][13] y[6][13] z[133] </args>
      <args> x[6][14] y[6][14] z[134] </args>
      <args> x[6][15] y[6][15] z[135] </args>
      <args> x[6][16] y[6][16] z[136] </args>
      <args> x[6][17] y[6][17] z[137] </args>
      <args> x[6][18] y[6][18] z[138] </args>
      <args> x[6][19] y[6][19] z[139] </args>
      <args> x[7][0] y[7][0] z[140] </args>
      <args> x[7][1] y[7][1] z[141] </args>
      <args> x[7][2] y[7][2] z[142] </args>
      <args> x[7][3] y[7][3] z[143] </args>
      <args> x[7][4] y[7][4] z[144] </args>
      <args> x[7][5] y[7][5] z[145] </args>
      <args> x[7][6] y[7][6] z[146] </args>
      <args> x[7][7] y[7][7] z[147] </args>
      <args> x[7][8] y[7][8] z[148] </args>
      <args> x[7][9] y[7][9] z[149] </args>
      <args> x[7][10] y[7][10] z[150] </args>
      <args> x[7][11] y[7][11] z[151] </args>
      <args> x[7][12] y[7][12] z[152] </args>
      <args> x[7][13] y[7][13] z[153] </args>
      <args> x[7][14] y[7][14] z[154] </args>
      <args> x[7][15] y[7][15] z[155] </args>
      <args> x[7][16] y[7][16] z[156] </args>
      <args> x[7][17] y[7][17] z[157] </args>
      <args> x[7][18] y[7][18] z[158] </args>
      <args> x[7][19] y[7][19] z[159] </args>
      <args> x[8][0] y[8][0] z[160] </args>
      <args> x[8][1] y[8][1] z[161] </args>
      <args> x[8][2] y[8][2] z[162] </args>
      <args> x[8][3] y[8][3] z[163] </args>
      <args> x[8][4] y[8][4] z[164] </args>
      <args> x[8][5] y[8][5] z[165] </args>
      <args> x[8][6] y[8][6] z[166] </args>
      <args> x[8][7] y[8][7] z[167] </args>
      <args> x[8][8] y[8][8] z[168] </args>
      <args> x[8][9] y[8][9] z[169] </args>
      <args> x[8][10] y[8][10] z[170] </args>
      <args> x[8][11] y[8][11] z[171] </args>
      <args> x[8][12] y[8][12] z[172] </args>
      <args> x[8][13] y[8][13] z[173] </args>
      <args> x[8][14] y[8][14] z[174] </args>
      <args> x[8][15] y[8][15] z[175] </args>
      <args> x[8][16] y[8][16] z[176] </args>
      <args> x[8][17] y[8][17] z[177] </args>
      <args> x[8][18] y[8][18] z[178] </args>
      <args> x[8][19] y[8][19] z[179] </args>
      <args> x[9][0] y[9][0] z[180] </args>
      <args> x[9][1] y[9][1] z[181] </args>
      <args> x[9][2] y[9][2] z[182] </args>
      <args> x[9][3] y[9][3] z[183] </args>
      <args> x[9][4] y[9][4] z[184] </args>
      <args> x[9][5] y[9][5] z[185] </args>
      <args> x[9][6] y[9][6] z[186] </args>
      <args> x[9][7] y[9][7] z[187] </args>
      <args> x[9][8] y[9][8] z[188] </args>
      <args> x[9][9] y[9][9] z[189] </args>
      <args> x[9][10] y[9][10] z[190] </args>
      <args> x[9][11] y[9][11] z[191] </args>
      <args> x[9][12] y[9][12] z[192] </args>
      <args> x[9][13] y[9][13] z[193] </args>
      <args> x[9][14] y[9][14] z[194] </args>
      <args> x[9][15] y[9][15] z[195] </args>
      <args> x[9][16] y[9][16] z[196] </args>
      <args> x[9][17] y[9][17] z[197] </args>
      <args> x[9][18] y[9][18] z[198] </args>
      <args> x[9][19] y[9][19] z[199] </args>
      <args> x[10][0] y[10][0] z[200] </args>
      <args> x[10][1] y[10][1] z[201] </args>
      <args> x[10][2] y[10][2] z[202] </args>
      <args> x[10][3] y[10][3] z[203] </args>
      <args> x[10][4] y[10][4] z[204] </args>
      <args> x[10][5] y[10][5] z[205] </args>
      <args> x[10][6] y[10][6] z[206] </args>
      <args> x[10][7] y[10][7] z[207] </args>
      <args> x[10][8] y[10][8] z[208] </args>
      <args> x[10][9] y[10][9] z[209] </args>
      <args> x[10][10] y[10][10] z[210] </args>
      <args> x[10][11] y[10][11] z[211] </args>
      <args> x[10][12] y[10][12] z[212] </args>
      <args> x[10][13] y[10][13] z[213] </args>
      <args> x[10][14] y[10][14] z[214] </args>
      <args> x[10][15] y[10][15] z[215] </args>
      <args> x[10][16] y[10][16] z[216] </args>
      <args> x[10][17] y[10][17] z[217] </args>
      <args> x[10][18] y[10][18] z[218] </args>
      <args> x[10][19] y[10][19] z[219] </args>
      <args> x[11][0] y[11][0] z[220] </args>
      <args> x[11][1] y[11][1] z[221] </args>
      <args> x[11][2] y[11][2] z[222] </args>
      <args> x[11][3] y[11][3] z[223] </args>
      <args> x[11][4] y[11][4] z[224] </args>
      <args> x[11][5] y[11][5] z[225] </args>
      <args> x[11][6] y[11][6] z[226] </args>
      <args> x[11][7] y[11][7] z[227] </args>
      <args> x[11][8] y[11][8] z[228] </args>
      <args> x[11][9] y[11][9] z[229] </args>
      <args> x[11][10] y[11][10] z[230] </args>
      <args> x[11][11] y[11][11] z[231] </args>
      <args> x[11][12] y[11][12] z[232] </args>
      <args> x[11][13] y[11][13] z[233] </args>
      <args> x[11][14] y[11][14] z[234] </args>
      <args> x[11][15] y[11][15] z[235] </args>
      <args> x[11][16] y[11][16] z[236] </args>
      <args> x[11][17] y[11][17] z[237] </args>
      <args> x[11][18] y[11][18] z[238] </args>
      <args> x[11][19] y[11][19] z[239] </args>
      <args> x[12][0] y[12][0] z[240] </args>
      <args> x[12][1] y[12][1] z[241] </args>
      <args> x[12][2] y[12][2] z[242] </args>
      <args> x[12][3] y[12][3] z[243] </args>
      <args> x[12][4] y[12][4] z[244] </args>
      <args> x[12][5] y[12][5] z[245] </args>
      <args> x[12][6] y[12][6] z[246] </args>
      <args> x[12][7] y[12][7] z[247] </args>
      <args> x[12][8] y[12][8] z[248] </args>
      <args> x[12][9] y[12][9] z[249] </args>
      <args> x[12][10] y[12][10] z[250] </args>
      <args> x[12][11] y[12][11] z[251] </args>
      <args> x[12][12] y[12][12] z[252] </args>
      <args> x[12][13] y[12][13] z[253] </args>
      <args> x[12][14] y[12][14] z[254] </args>
      <args> x[12][15] y[12][15] z[255] </args>
      <args> x[12][16] y[12][16] z[256] </args>
      <args> x[12][17] y[12][17] z[257] </args>
      <args> x[12][18] y[12][18] z[258] </args>
      <args> x[12][19] y[12][19] z[259] </args>
      <args> x[13][0] y[13][0] z[260] </args>
      <args> x[13][1] y[13][1] z[261] </args>
      <args> x[13][2] y[13][2] z[262] </args>
      <args> x[13][3] y[13][3] z[263] </args>
      <args> x[13][4] y[13][4] z[264] </args>
      <args> x[13][5] y[13][5] z[265] </args>
      <args> x[13][6] y[13][6] z[266] </args>
      <args> x[13][7] y[13][7] z[267] </args>
      <args> x[13][8] y[13][8] z[268] </args>
      <args> x[13][9] y[13][9] z[269] </args>
      <args> x[13][10] y[13][10] z[270] </args>
      <args> x[13][11] y[13][11] z[271] </args>
      <args> x[13][12] y[13][12] z[272] </args>
      <args> x[13][13] y[13][13] z[273] </args>
      <args> x[13][14] y[13][14] z[274] </args>
      <args> x[13][15] y[13][15] z[275] </args>
      <args> x[13][16] y[13][16] z[276] </args>
      <args> x[13][17] y[13][17] z[277] </args>
      <args> x[13][18] y[13][18] z[278] </args>
      <args> x[13][19] y[13][19] z[279] </args>
      <args> x[14][0] y[14][0] z[280] </args>
      <args> x[14][1] y[14][1] z[281] </args>
      <args> x[14][2] y[14][2] z[282] </args>
      <args> x[14][3] y[14][3] z[283] </args>
      <args> x[14][4] y[14][4] z[284] </args>
      <args> x[14][5] y[14][5] z[285] </args>
      <args> x[14][6] y[14][6] z[286] </args>
      <args> x[14][7] y[14][7] z[287] </args>
      <args> x[14][8] y[14][8] z[288] </args>
      <args> x[14][9] y[14][9] z[289] </args>
      <args> x[14][10] y[14][10] z[290] </args>
      <args> x[14][11] y[14][11] z[291] </args>
      <args> x[14][12] y[14][12] z[292] </args>
      <args> x[14][13] y[14][13] z[293] </args>
      <args> x[14][14] y[14][14] z[294] </args>
      <args> x[14][15] y[14][15] z[295] </args>
      <args> x[14][16] y[14][16] z[296] </args>
      <args> x[14][17] y[14][17] z[297] </args>
      <args> x[14][18] y[14][18] z[298] </args>
      <args> x[14][19] y[14][19] z[299] </args>
      <args> x[15][0] y[15][0] z[300] </args>
      <args> x[15][1] y[15][1] z[301] </args>
      <args> x[15][2] y[15][2] z[302] </args>
      <args> x[15][3] y[15][3] z[303] </args>
      <args> x[15][4] y[15][4] z[304] </args>
      <args> x[15][5] y[15][5] z[305] </args>
      <args> x[15][6] y[15][6] z[306] </args>
      <args> x[15][7] y[15][7] z[307] </args>
      <args> x[15][8] y[15][8] z[308] </args>
      <args> x[15][9] y[15][9] z[309] </args>
      <args> x[15][10] y[15][10] z[310] </args>
      <args> x[15][11] y[15][11] z[311] </args>
      <args> x[15][12] y[15][12] z[312] </args>
      <args> x[15][13] y[15][13] z[313] </args>
      <args> x[15][14] y[15][14] z[314] </args>
      <args> x[15][15] y[15][15] z[315] </args>
      <args> x[15][16] y[15][16] z[316] </args>
      <args> x[15][17] y[15][17] z[317] </args>
      <args> x[15][18] y[15][18] z[318] </args>
      <args> x[15][19] y[15][19] z[319] </args>
      <args> x[16][0] y[16][0] z[320] </args>
      <args> x[16][1] y[16][1] z[321] </args>
      <args> x[16][2] y[16][2] z[322] </args>
      <args> x[16][3] y[16][3] z[323] </args>
      <args> x[16][4] y[16][4] z[324] </args>
      <args> x[16][5] y[16][5] z[325] </args>
      <args> x[16][6] y[16][6] z[326] </args>
      <args> x[16][7] y[16][7] z[327] </args>
      <args> x[16][8] y[16][8] z[328] </args>
      <args> x[16][9] y[16][9] z[329] </args>
      <args> x[16][10] y[16][10] z[330] </args>
      <args> x[16][11] y[16][11] z[331] </args>
      <args> x[16][12] y[16][12] z[332] </args>
      <args> x[16][13] y[16][13] z[333] </args>
      <args> x[16][14] y[16][14] z[334] </args>
      <args> x[16][15] y[16][15] z[335] </args>
      <args> x[16][16] y[16][16] z[336] </args>
      <args> x[16][17] y[16][17] z[337] </args>
      <args> x[16][18] y[16][18] z[338] </args>
      <args> x[16][19] y[16][19] z[339] </args>
      <args> x[17][0] y[17][0] z[340] </args>
      <args> x[17][1] y[17][1] z[341] </args>
      <args> x[17][2] y[17][2] z[342] </args>
      <args> x[17][3] y[17][3] z[343] </args>
      <args> x[17][4] y[17][4] z[344] </args>
      <args> x[17][5] y[17][5] z[345] </args>
      <args> x[17][6] y[17][6] z[346] </args>
      <args> x[17][7] y[17][7] z[347] </args>
      <args> x[17][8] y[17][8] z[348] </args>
      <args> x[17][9] y[17][9] z[349] </args>
      <args> x[17][10] y[17][10] z[350] </args>
      <args> x[17][11] y[17][11] z[351] </args>
      <args> x[17][12] y[17][12] z[352] </args>
      <args> x[17][13] y[17][13] z[353] </args>
      <args> x[17][14] y[17][14] z[354] </args>
      <args> x[17][15] y[17][15] z[355] </args>
      <args> x[17][16] y[17][16] z[356] </args>
      <args> x[17][17] y[17][17] z[357] </args>
      <args> x[17][18] y[17][18] z[358] </args>
      <args> x[17][19] y[17][19] z[359] </args>
      <args> x[18][0] y[18][0] z[360] </args>
      <args> x[18][1] y[18][1] z[361] </args>
      <args> x[18][2] y[18][2] z[362] </args>
      <args> x[18][3] y[18][3] z[363] </args>
      <args> x[18][4] y[18][4] z[364] </args>
      <args> x[18][5] y[18][5] z[365] </args>
      <args> x[18][6] y[18][6] z[366] </args>
      <args> x[18][7] y[18][7] z[367] </args>
      <args> x[18][8] y[18][8] z[368] </args>
      <args> x[18][9] y[18][9] z[369] </args>
      <args> x[18][10] y[18][10] z[370] </args>
      <args> x[18][11] y[18][11] z[371] </args>
      <args> x[18][12] y[18][12] z[372] </args>
      <args> x[18][13] y[18][13] z[373] </args>
      <args> x[18][14] y[18][14] z[374] </args>
      <args> x[18][15] y[18][15] z[375] </args>
      <args> x[18][16] y[18][16] z[376] </args>
      <args> x[18][17] y[18][17] z[377] </args>
      <args> x[18][18] y[18][18] z[378] </args>
      <args> x[18][19] y[18][19] z[379] </args>
      <args> x[19][0] y[19][0] z[380] </args>
      <args> x[19][1] y[19][1] z[381] </args>
      <args> x[19][2] y[19][2] z[382] </args>
      <args> x[19][3] y[19][3] z[383] </args>
      <args> x[19][4] y[19][4] z[384] </args>
      <args> x[19][5] y[19][5] z[385] </args>
      <args> x[19][6] y[19][6] z[386] </args>
      <args> x[19][7] y[19][7] z[387] </args>
      <args> x[19][8] y[19][8] z[388] </args>
      <args> x[19][9] y[19][9] z[389] </args>
      <args> x[19][10] y[19][10] z[390] </args>
      <args> x[19][11] y[19][11] z[391] </args>
      <args> x[19][12] y[19][12] z[392] </args>
      <args> x[19][13] y[19][13] z[393] </args>
      <args> x[19][14] y[19][14] z[394] </args>
      <args> x[19][15] y[19][15] z[395] </args>
      <args> x[19][16] y[19][16] z[396] </args>
      <args> x[19][17] y[19][17] z[397] </args>
      <args> x[19][18] y[19][18] z[398] </args>
      <args> x[19][19] y[19][19] z[399] </args>
    </group>
    <group class="symmetry-breaking">
      <intension> eq(%0,%1) </intension>
      <args> x[0][0] 0 </args>
      <args> x[0][1] 1 </args>
      <args> x[0][2] 2 </args>
      <args> x[0][3] 3 </args>
      <args> x[0][4] 4 </args>
      <args> x[0][5] 5 </args>
      <args> x[0][6] 6 </args>
      <args> x[0][7] 7 </args>
      <args> x[0][8] 8 </args>
      <args> x[0][9] 9 </args>
      <args> x[0][10] 10 </args>
      <args> x[0][11] 11 </args>
      <args> x[0][12] 12 </args>
      <args> x[0][13] 13 </args>
      <args> x[0][14] 14 </args>
      <args> x[0][15] 15 </args>
      <args> x[0][16] 16 </args>
      <args> x[0][17] 17 </args>
      <args> x[0][18] 18 </args>
      <args> x[0][19] 19 </args>
      <args> y[0][0] 0 </args>
      <args> y[0][1] 1 </args>
      <args> y[0][2] 2 </args>
      <args> y[0][3] 3 </args>
      <args> y[0][4] 4 </args>
      <args> y[0][5] 5 </args>
      <args> y[0][6] 6 </args>
      <args> y[0][7] 7 </args>
      <args> y[0][8] 8 </args>
      <args> y[0][9] 9 </args>
      <args> y[0][10] 10 </args>
      <args> y[0][11] 11 </args>
      <args> y[0][12] 12 </args>
      <args> y[0][13] 13 </args>
      <args> y[0][14] 14 </args>
      <args> y[0][15] 15 </args>
      <args> y[0][16] 16 </args>
      <args> y[0][17] 17 </args>
      <args> y[0][18] 18 </args>
      <args> y[0][19] 19 </args>
    </group>
  </constraints>
</instance>
